46 56
17 25
13 45
25 22
89 82
78 56
47 86
55 38
63 71
76 69
49 69
18 84
38 95
76 104
54 31
72 104
66 99
18 43
54 120
56 79
11 71
55 59
65 108
24 131
86 126
29 143
67 53
93 139
102 139
18 124
10 155
52 78
10 168
43 169
21 106
71 89
14 89
61 106
42 114
95 178
87 199
19 125
5 121
85 129
57 137
53 148
44 151
27 102
96 148
29 159
42 172
90 211
28 201
59 204
94 179
50 135
59 161
58 191
37 162
51 171
61 179
60 156
5 219
4 151
88 236
39 249
105 226
29 246
78 168
55 247
80 176
91 229
95 199
68 201
91 254
21 245
27 185
64 225
80 259
21 223
91 254
97 292
78 296
49 209
5 270
70 226
103 215
97 276
14 264
85 265
27 278
5 288
97 235
34 264
64 269
103 296
33 309
45 250
25 295
80 270
